
  32    1
  10

   0   0   7 2 4 5 6 9 15 22 
   2   1   1 3 
   8   8   2 10 7 
   2   8   5 31 30 14 11 10 
   5   3   2 10 8 
   1   6   4 31 30 11 10 
   2   4   2 13 8 
   7   9   5 31 30 16 12 11 
   3   7   4 30 13 12 11 
  10   4   4 21 16 13 12 
   7   7   6 29 27 25 24 21 17 
  10   9   4 20 19 18 17 
   1   5   5 28 27 20 19 18 
   2   4   4 27 25 23 17 
   7   6   5 27 26 25 24 23 
   8  10   3 29 27 23 
   3   5   2 28 26 
   1   8   2 24 23 
   9   8   1 25 
   9   5   1 24 
   1   5   1 23 
  10   2   1 26 
   3   6   1 32
   5   9   1 32
  10   3   1 32
   6   6   1 32
   9   3   1 32
  10   7   1 32
   1   7   1 32
   9   8   1 32
   8   7   1 32
   0   0   0 
